\ENCODING=ISO-8859-1
\Problem name: master_ILP.lp

Minimize
 obj1: theta.0
Subject To
 c1: 17.2576987375228 x.0 + 13.2854290080846 x.1 + 15.7499637017386 x.2
     + 16.9224743764627 x.3 + 18.5370807448744 x.4 + 15.8170151568862 x.5
     + 16.8250474049959 x.6 + 17.9755423002418 x.7 + 18.2686976464829 x.8
     + 13.7878852273912 x.9 + 14.1722420432223 x.10 + 15.6011371345964 x.11
     + 14.8790342637043 x.12 + 16.1580844837222 x.13 + 18.1528055680509 x.14
     + 14.6826151306465 x.15 + 17.8619309541179 x.16 + 15.5369279661072 x.17
     + 13.6009386664836 x.18 + 16.7219690031706 x.19 + 17.3108592649732 x.20
     + 14.2638058903579 x.21 + 11.9679475180857 x.22 + 16.9066726954874 x.23
     + 15.2014486186514 x.24 + 13.0816393301101 x.25 + 15.735482753904 x.26
     + 15.4450216840316 x.27 + 17.0811948989628 x.28 + 13.1012434108271 x.29
     + 15.7797849563467 x.30 + 15.6289616419836 x.31 + 15.0325300376231 x.32
     + 12.3847390493032 x.33 + 16.7356677626544 x.34 + 18.0598271422026 x.35
     + 13.7357174706465 x.36 + 16.606737277117 x.37 + 14.5574433190868 x.38
     + 12.6425263756509 x.39 + 13.5860617200718 x.40 + 16.2435377653102 x.41
     + 16.4944679471236 x.42 + 12.9599539083184 x.43 + 14.6368508572579 x.44
     + 14.9762836038944 x.45 + 18.2933138523067 x.46 + 16.1905527134619 x.47
     + 15.8833286633252 x.48 + 17.3510742644627 x.49 + 18.3103279035389 x.50
     + 16.0097686109376 x.51 + 17.6763529582529 x.52 + 17.061010638546 x.53
     + 13.6019312047952 x.54 + 15.6988909156557 x.55 + 18.2184638685778 x.56
     + 13.9224514969867 x.57 + 17.7036716608454 x.58 + 14.7799868644201 x.59
     + 16.3366664883305 x.60 + 18.3967651616514 x.61 + 14.1451186817616 x.62
     + 14.7157139537574 x.63 + 12.4759948936056 x.64 + 15.4858686109376 x.65
     + 16.8664283873352 x.66 + 17.2821961351365 x.67 + 15.9680207567115 x.68
     + 12.0392729825615 x.69 + 15.06655989388 x.70 + 15.648629045566 x.71
     + 14.3749007205332 x.72 + 14.2342986870897 x.73 + 18.0186346764465 x.74
     + 15.7231207461537 x.75 + 12.53270542996 x.76 + 12.688361387386 x.77
     + 17.5369438260768 x.78 + 14.0260225645672 x.79 + 15.7316257526826 x.80
     + 12.8716736587405 x.81 + 17.8411141851886 x.82 + 17.2286096499449 x.83
     + 13.7476785169437 x.84 + 14.0546478840763 x.85 + 14.0644293604903 x.86
     + 13.8386193937102 x.87 + 16.5105114657261 x.88 + 17.7998833644614 x.89
     - theta.0 <= 11.9679475180857
Bounds
 0 <= x.0 <= 1
 0 <= x.1 <= 1
 0 <= x.2 <= 1
 0 <= x.3 <= 1
 0 <= x.4 <= 1
 0 <= x.5 <= 1
 0 <= x.6 <= 1
 0 <= x.7 <= 1
 0 <= x.8 <= 1
 0 <= x.9 <= 1
 0 <= x.10 <= 1
 0 <= x.11 <= 1
 0 <= x.12 <= 1
 0 <= x.13 <= 1
 0 <= x.14 <= 1
 0 <= x.15 <= 1
 0 <= x.16 <= 1
 0 <= x.17 <= 1
 0 <= x.18 <= 1
 0 <= x.19 <= 1
 0 <= x.20 <= 1
 0 <= x.21 <= 1
 0 <= x.22 <= 1
 0 <= x.23 <= 1
 0 <= x.24 <= 1
 0 <= x.25 <= 1
 0 <= x.26 <= 1
 0 <= x.27 <= 1
 0 <= x.28 <= 1
 0 <= x.29 <= 1
 0 <= x.30 <= 1
 0 <= x.31 <= 1
 0 <= x.32 <= 1
 0 <= x.33 <= 1
 0 <= x.34 <= 1
 0 <= x.35 <= 1
 0 <= x.36 <= 1
 0 <= x.37 <= 1
 0 <= x.38 <= 1
 0 <= x.39 <= 1
 0 <= x.40 <= 1
 0 <= x.41 <= 1
 0 <= x.42 <= 1
 0 <= x.43 <= 1
 0 <= x.44 <= 1
 0 <= x.45 <= 1
 0 <= x.46 <= 1
 0 <= x.47 <= 1
 0 <= x.48 <= 1
 0 <= x.49 <= 1
 0 <= x.50 <= 1
 0 <= x.51 <= 1
 0 <= x.52 <= 1
 0 <= x.53 <= 1
 0 <= x.54 <= 1
 0 <= x.55 <= 1
 0 <= x.56 <= 1
 0 <= x.57 <= 1
 0 <= x.58 <= 1
 0 <= x.59 <= 1
 0 <= x.60 <= 1
 0 <= x.61 <= 1
 0 <= x.62 <= 1
 0 <= x.63 <= 1
 0 <= x.64 <= 1
 0 <= x.65 <= 1
 0 <= x.66 <= 1
 0 <= x.67 <= 1
 0 <= x.68 <= 1
 0 <= x.69 <= 1
 0 <= x.70 <= 1
 0 <= x.71 <= 1
 0 <= x.72 <= 1
 0 <= x.73 <= 1
 0 <= x.74 <= 1
 0 <= x.75 <= 1
 0 <= x.76 <= 1
 0 <= x.77 <= 1
 0 <= x.78 <= 1
 0 <= x.79 <= 1
 0 <= x.80 <= 1
 0 <= x.81 <= 1
 0 <= x.82 <= 1
 0 <= x.83 <= 1
 0 <= x.84 <= 1
 0 <= x.85 <= 1
 0 <= x.86 <= 1
 0 <= x.87 <= 1
 0 <= x.88 <= 1
 0 <= x.89 <= 1
-26.6508 <= theta.0 <= 2040.409
Binaries
 x.0  x.1  x.2  x.3  x.4  x.5  x.6  x.7  x.8  x.9  x.10  x.11  x.12  x.13 
 x.14  x.15  x.16  x.17  x.18  x.19  x.20  x.21  x.22  x.23  x.24  x.25  x.26 
 x.27  x.28  x.29  x.30  x.31  x.32  x.33  x.34  x.35  x.36  x.37  x.38  x.39 
 x.40  x.41  x.42  x.43  x.44  x.45  x.46  x.47  x.48  x.49  x.50  x.51  x.52 
 x.53  x.54  x.55  x.56  x.57  x.58  x.59  x.60  x.61  x.62  x.63  x.64  x.65 
 x.66  x.67  x.68  x.69  x.70  x.71  x.72  x.73  x.74  x.75  x.76  x.77  x.78 
 x.79  x.80  x.81  x.82  x.83  x.84  x.85  x.86  x.87  x.88  x.89 
End
